C 
 1.0000000000000000
    -1.2300000000000000    2.1304224933097191    0.0000000000000000
    -2.4600000000000000    0.0000000000000000    0.0000000000000000
     0.0000000000000000    0.0000000000000000   30.0000000000000000
 C  
   4
Cartesian
  0.0000000000000000  0.0000000000000000 13.3249999999999993
 -2.4600000000000000  1.4202816622064793 13.3249999999999993
 -1.2300000000000015  0.7101408311032387 16.6750000000000007
  0.0000000000000012  0.0000000000000006 16.6750000000000007
